4 
5  26 41 56 
6  09 16 24 31 41 48 56 
7  03 11 18 26 33 41 48 56 
8  03 11 18 26 33 41 48 56 
9  03 11 18 26 33 41 48 56 
10  03 15 22 30 37 45 52 
11  00 07 15 22 30 37 45 52 
12  00 07 15 22 30 37 45 52 
13  00 07 15 22 30 37 45 52 
14  00 07 15 22 30 37 45 52 
15  00 07 15 26 34 41 48 56 
16  04 11 19 26 34 41 49 56 
17  04 11 19 26 34 41 49 56 
18  04 11 20 26 35 41 50 56 
19  05 11 19 30 37 45 52 
20  00 07 17 27 35 43 57 
21  11 26 41 56 
22  11 26 37 52 
23  07 20 40 
0 
